cost: 627.05
Route 1:           0   26    0
Route 2:           0   19   49   40   16   13   46   39   43   11   35   22    3    8   47   29    1    0
Route 3:           0   27   28    6   48    5   25   50   21   12   18   38   31   17   15   10   44   32    2    0
Route 4:           0   42   33    4   45   20   37   36   34   14    9    7   23   30   41   24    0
